1 1 -2 0
1 3 -4 0
1 5 6 0
1 -7 8 0
1 -7 -9 0
1 -10 -11 0
1 -10 7 0
1 12 13 0
1 12 7 0
1 -12 14 0
1 15 16 0
1 -15 17 0
1 18 -7 0
1 -4 -10 0
1 -19 20 0
1 19 21 0
1 22 21 0
1 -17 13 0
1 -17 -23 0
1 17 -12 0
1 -17 9 0
1 13 15 0
1 -21 -13 0
1 -24 22 0
1 -9 22 0
1 -9 -25 0
1 -9 26 0
1 8 -10 0
1 -8 27 0
1 28 29 0
1 -30 31 0
1 -32 33 0
1 32 -34 0
1 -35 -36 0
1 35 -37 0
1 -35 28 0
1 38 32 0
1 -39 40 0
1 -39 5 0
1 6 -41 0
1 6 -2 0
1 42 34 0
1 -42 -43 0
1 33 -37 0
1 -34 44 0
1 20 44 0
1 20 43 0
1 -45 -46 0
1 23 -47 0
1 23 -48 0
1 47 33 0
1 49 -26 0
1 -43 -45 0
1 -43 20 0
1 -16 12 0
1 14 -8 0
1 -14 -50 0
1 -14 -9 0
1 -14 -51 0
1 -26 52 0
1 -26 -9 0
1 53 8 0
1 -53 54 0
1 54 25 0
1 55 -27 0
1 -50 56 0
1 -51 -57 0
1 -51 -58 0
1 -52 -26 0
1 52 -59 0
1 -60 -53 0
1 61 62 0
1 -63 64 0
1 63 65 0
1 -63 62 0
1 -63 -66 0
1 67 -62 0
1 65 63 0
1 29 -68 0
1 -29 -69 0
1 -70 71 0
1 70 69 0
1 -72 73 0
1 74 -68 0
1 -69 70 0
1 -69 72 0
1 69 29 0
1 -68 -75 0
1 68 76 0
1 -77 72 0
1 -40 -39 0
1 -78 -79 0
1 -78 -80 0
1 78 81 0
1 82 38 0
1 -82 81 0
1 -83 -84 0
1 80 85 0
1 -80 86 0
1 79 74 0
1 44 -87 0
1 -44 88 0
1 87 89 0
1 90 -91 0
1 90 -84 0
1 92 -73 0
1 -88 93 0
1 -88 -94 0
1 -89 -87 0
1 -89 95 0
1 -96 -83 0
1 96 97 0
1 98 -99 0
1 -100 33 0
1 100 88 0
1 -100 -43 0
1 -93 -101 0
1 -102 -91 0
1 -102 -103 0
1 36 103 0
1 36 -104 0
1 103 100 0
1 105 97 0
1 106 -105 0
1 106 -102 0
1 56 25 0
1 -56 -107 0
1 -56 58 0
1 58 101 0
1 58 -51 0
1 -57 50 0
1 -57 -103 0
1 57 -101 0
1 -57 51 0
1 -108 57 0
1 -108 -101 0
1 -108 -109 0
1 110 -111 0
1 -110 112 0
1 -110 -113 0
1 -109 110 0
1 -109 -114 0
1 -109 -58 0
1 -101 -115 0
1 -112 55 0
1 -111 116 0
1 -111 109 0
1 117 110 0
1 -118 112 0
1 -118 -119 0
1 -120 108 0
1 -121 -111 0
1 121 120 0
1 -122 -123 0
1 -122 -118 0
1 122 124 0
1 -122 -125 0
1 124 -52 0
1 -126 122 0
1 -123 -127 0
1 -123 128 0
1 129 -130 0
1 129 -127 0
1 -131 132 0
1 133 123 0
1 133 126 0
1 133 -134 0
1 -135 134 0
1 -136 123 0
1 136 -137 0
1 -138 139 0
1 138 -140 0
1 -138 66 0
1 139 -141 0
1 -142 -139 0
1 142 -138 0
1 -143 -141 0
1 -144 -136 0
1 -145 146 0
1 -147 148 0
1 -149 150 0
1 -151 -152 0
1 150 -153 0
1 154 -155 0
1 -154 -150 0
1 -154 -156 0
1 154 149 0
1 157 -158 0
1 -157 -148 0
1 157 -159 0
1 -160 161 0
1 160 76 0
1 158 76 0
1 -158 149 0
1 162 149 0
1 -162 163 0
1 86 -77 0
1 164 69 0
1 -161 -85 0
1 161 -165 0
1 166 167 0
1 166 168 0
1 -169 86 0
1 -170 171 0
1 -172 85 0
1 -172 -173 0
1 99 73 0
1 99 -98 0
1 174 73 0
1 95 -175 0
1 176 -175 0
1 -165 177 0
1 175 -97 0
1 178 -85 0
1 178 -95 0
1 -107 96 0
1 -97 -88 0
1 -179 180 0
1 -181 -106 0
1 181 -182 0
1 -182 -183 0
1 182 -97 0
1 -104 -115 0
1 104 94 0
1 -104 103 0
1 -184 -185 0
1 186 -187 0
1 -186 -188 0
1 -94 189 0
1 -190 -191 0
1 192 -193 0
1 -113 192 0
1 -113 -194 0
1 -195 -196 0
1 195 121 0
1 187 -197 0
1 187 -186 0
1 -194 -198 0
1 -194 -103 0
1 194 199 0
1 193 -200 0
1 -193 -201 0
1 202 -203 0
1 -202 106 0
1 202 -113 0
1 -202 186 0
1 -132 118 0
1 -132 -204 0
1 132 121 0
1 205 132 0
1 205 187 0
1 -205 -129 0
1 -205 -204 0
1 206 207 0
1 208 209 0
1 -208 -210 0
1 -211 132 0
1 -204 -132 0
1 204 130 0
1 204 -101 0
1 128 -126 0
1 212 -123 0
1 212 -129 0
1 -212 -134 0
1 -212 128 0
1 210 -209 0
1 210 -213 0
1 -209 -208 0
1 209 214 0
1 -209 213 0
1 209 210 0
1 -215 -118 0
1 -215 -216 0
1 215 -210 0
1 207 -217 0
1 -207 -218 0
1 207 -210 0
1 219 210 0
1 214 209 0
1 220 -221 0
1 -220 222 0
1 -222 -137 0
1 -222 -144 0
1 217 223 0
1 217 218 0
1 -217 144 0
1 -213 126 0
1 -221 217 0
1 221 -222 0
1 -221 -210 0
1 -224 -225 0
1 -225 -226 0
1 225 -222 0
1 227 -143 0
1 228 229 0
1 -228 230 0
1 228 -213 0
1 -228 231 0
1 232 -228 0
1 -231 217 0
1 -231 233 0
1 223 234 0
1 -229 137 0
1 235 236 0
1 -237 -238 0
1 -239 234 0
1 240 -241 0
1 -230 -235 0
1 -230 237 0
1 -238 242 0
1 243 244 0
1 -245 246 0
1 -247 248 0
1 -247 249 0
1 -250 -251 0
1 244 252 0
1 153 253 0
1 -254 -250 0
1 254 -255 0
1 -256 -248 0
1 249 -248 0
1 -249 257 0
1 -258 -247 0
1 253 -257 0
1 -253 -259 0
1 -260 158 0
1 155 -151 0
1 -261 248 0
1 -261 262 0
1 261 263 0
1 -261 -264 0
1 265 262 0
1 265 -162 0
1 266 -155 0
1 262 267 0
1 268 -269 0
1 -171 -172 0
1 -171 -160 0
1 -173 270 0
1 173 271 0
1 -270 -272 0
1 -152 171 0
1 152 -151 0
1 273 265 0
1 -273 173 0
1 273 274 0
1 273 275 0
1 269 -173 0
1 269 268 0
1 276 -277 0
1 -168 152 0
1 -180 278 0
1 -180 277 0
1 -275 -278 0
1 -275 163 0
1 -272 279 0
1 -272 -185 0
1 278 280 0
1 163 162 0
1 281 282 0
1 281 -175 0
1 281 283 0
1 -281 165 0
1 -281 182 0
1 -183 -178 0
1 -183 -281 0
1 185 -284 0
1 -185 285 0
1 185 -283 0
1 286 185 0
1 -287 -288 0
1 -283 288 0
1 283 289 0
1 -282 -290 0
1 282 291 0
1 282 288 0
1 -282 292 0
1 -293 284 0
1 -191 198 0
1 191 -294 0
1 177 -203 0
1 177 -165 0
1 295 -288 0
1 -284 296 0
1 189 -297 0
1 189 -298 0
1 203 299 0
1 203 -205 0
1 -200 -300 0
1 200 -202 0
1 200 206 0
1 201 193 0
1 -201 298 0
1 -301 -296 0
1 301 302 0
1 -298 -203 0
1 -298 303 0
1 -298 -301 0
1 -294 -296 0
1 299 -296 0
1 -299 304 0
1 305 306 0
1 -307 211 0
1 -308 298 0
1 -306 309 0
1 -306 -305 0
1 -306 -307 0
1 300 310 0
1 -311 -312 0
1 -313 114 0
1 -313 303 0
1 310 204 0
1 -314 -315 0
1 314 -316 0
1 -314 197 0
1 314 -317 0
1 -197 -318 0
1 -317 202 0
1 -319 320 0
1 -321 -320 0
1 -321 199 0
1 321 322 0
1 226 -225 0
1 226 224 0
1 -226 -323 0
1 320 319 0
1 323 324 0
1 -323 -204 0
1 236 318 0
1 -325 -223 0
1 -234 -326 0
1 327 326 0
1 -328 329 0
1 322 -214 0
1 -330 -331 0
1 -330 238 0
1 -330 332 0
1 -332 -328 0
1 333 -331 0
1 -334 335 0
1 -334 -336 0
1 -334 328 0
1 -337 338 0
1 -337 -242 0
1 -337 332 0
1 339 -340 0
1 339 -327 0
1 -242 336 0
1 -341 342 0
1 -338 343 0
1 344 335 0
1 -344 336 0
1 342 345 0
1 342 -344 0
1 -335 242 0
1 335 334 0
1 -346 -347 0
1 -348 349 0
1 349 346 0
1 -349 350 0
1 349 -351 0
1 -352 353 0
1 352 348 0
1 -354 355 0
1 -354 350 0
1 -356 357 0
1 -358 -359 0
1 360 -361 0
1 -360 -362 0
1 360 -363 0
1 357 358 0
1 -359 358 0
1 362 364 0
1 -365 364 0
1 -365 366 0
1 361 367 0
1 368 -358 0
1 364 -369 0
1 -364 -358 0
1 -259 -366 0
1 -370 366 0
1 264 -251 0
1 264 367 0
1 264 371 0
1 372 -373 0
1 374 372 0
1 366 370 0
1 367 375 0
1 -257 -263 0
1 -376 263 0
1 373 377 0
1 373 -372 0
1 -251 250 0
1 -371 378 0
1 -371 379 0
1 -252 376 0
1 252 380 0
1 381 382 0
1 -381 -383 0
1 381 373 0
1 -381 -252 0
1 378 371 0
1 -384 251 0
1 -384 385 0
1 384 180 0
1 379 385 0
1 379 386 0
1 387 -267 0
1 387 388 0
1 386 -384 0
1 386 -378 0
1 386 -274 0
1 -385 389 0
1 385 390 0
1 -377 -373 0
1 -377 -379 0
1 -280 391 0
1 274 -269 0
1 -274 -392 0
1 393 394 0
1 -393 -390 0
1 -393 -386 0
1 393 395 0
1 -388 -386 0
1 391 -396 0
1 391 393 0
1 -397 396 0
1 397 291 0
1 397 292 0
1 394 -262 0
1 394 -398 0
1 399 -400 0
1 399 -401 0
1 -399 -402 0
1 399 -274 0
1 292 -403 0
1 -404 -391 0
1 -405 -404 0
1 -405 -406 0
1 407 408 0
1 -407 -152 0
1 407 -292 0
1 -406 409 0
1 406 -291 0
1 -406 407 0
1 395 410 0
1 -288 -282 0
1 -288 283 0
1 -409 -411 0
1 -409 284 0
1 -409 -412 0
1 -413 290 0
1 -279 -272 0
1 -414 -415 0
1 -416 412 0
1 -417 418 0
1 -417 177 0
1 417 294 0
1 -419 290 0
1 -412 420 0
1 -412 302 0
1 418 -417 0
1 418 -421 0
1 418 -422 0
1 289 -283 0
1 289 422 0
1 -290 416 0
1 -303 -412 0
1 423 304 0
1 423 -424 0
1 425 426 0
1 427 -428 0
1 -427 303 0
1 -429 430 0
1 429 -431 0
1 -432 295 0
1 432 431 0
1 432 -303 0
1 -426 419 0
1 312 -311 0
1 -428 -429 0
1 -428 433 0
1 428 300 0
1 428 424 0
1 -434 435 0
1 434 317 0
1 436 -437 0
1 -436 435 0
1 433 -436 0
1 -433 298 0
1 433 -438 0
1 424 -428 0
1 318 -439 0
1 318 -315 0
1 318 -197 0
1 -318 -431 0
1 -440 -441 0
1 -440 -327 0
1 -309 -439 0
1 -309 -318 0
1 442 -443 0
1 -435 439 0
1 -435 442 0
1 -444 320 0
1 -445 -444 0
1 -445 -446 0
1 447 326 0
1 -448 309 0
1 -448 -449 0
1 -441 450 0
1 451 452 0
1 -451 -343 0
1 -451 444 0
1 -451 -453 0
1 -451 445 0
1 -454 455 0
1 -454 447 0
1 454 -324 0
1 454 -448 0
1 -446 456 0
1 -450 322 0
1 -457 331 0
1 -457 -322 0
1 -343 -331 0
1 -343 449 0
1 -458 -441 0
1 -458 344 0
1 -459 460 0
1 -459 458 0
1 461 459 0
1 -462 457 0
1 347 -463 0
1 340 -347 0
1 340 -331 0
1 -340 -342 0
1 340 -463 0
1 345 -464 0
1 -345 342 0
1 465 466 0
1 -465 467 0
1 -329 -347 0
1 329 343 0
1 468 458 0
1 463 -469 0
1 463 -347 0
1 -353 -470 0
1 471 472 0
1 -473 -474 0
1 -473 -470 0
1 -473 -329 0
1 -475 -476 0
1 475 -474 0
1 -475 -477 0
1 475 329 0
1 -470 478 0
1 -470 -479 0
1 474 -480 0
1 -474 -466 0
1 -474 -481 0
1 474 -473 0
1 480 -339 0
1 -480 471 0
1 -479 -476 0
1 479 354 0
1 479 482 0
1 479 -470 0
1 483 484 0
1 485 486 0
1 487 485 0
1 477 342 0
1 -488 -485 0
1 -488 482 0
1 -488 -475 0
1 -488 -479 0
1 -489 -487 0
1 490 486 0
1 -490 -491 0
1 490 351 0
1 -492 -489 0
1 -491 484 0
1 493 -494 0
1 -493 495 0
1 -493 -496 0
1 494 497 0
1 -496 -498 0
1 497 494 0
1 -497 -499 0
1 -380 -498 0
1 -380 500 0
1 380 366 0
1 -499 -501 0
1 499 -502 0
1 -500 503 0
1 500 -392 0
1 -383 -504 0
1 383 -252 0
1 -392 504 0
1 -392 -505 0
1 -392 371 0
1 392 -500 0
1 392 274 0
1 -390 393 0
1 506 507 0
1 -506 377 0
1 -508 392 0
1 505 374 0
1 509 390 0
1 509 -383 0
1 504 -510 0
1 -504 390 0
1 -504 499 0
1 398 -385 0
1 398 511 0
1 398 386 0
1 -400 -507 0
1 -512 -508 0
1 513 -514 0
1 -515 -511 0
1 511 514 0
1 -402 -403 0
1 -411 389 0
1 411 516 0
1 -411 403 0
1 410 -517 0
1 -410 -401 0
1 410 -518 0
1 519 -400 0
1 -520 -512 0
1 -389 -396 0
1 -389 -521 0
1 522 512 0
1 408 -517 0
1 -408 -523 0
1 523 403 0
1 523 518 0
1 -524 401 0
1 -524 -518 0
1 525 524 0
1 -516 -526 0
1 518 397 0
1 -517 -527 0
1 -401 523 0
1 401 527 0
1 -401 524 0
1 415 290 0
1 415 -303 0
1 -415 -414 0
1 528 -279 0
1 -529 -530 0
1 -529 531 0
1 -532 420 0
1 -533 529 0
1 -533 534 0
1 -531 395 0
1 -421 -418 0
1 -420 535 0
1 -420 289 0
1 534 -536 0
1 -534 -432 0
1 -537 -538 0
1 -539 540 0
1 -535 541 0
1 542 -543 0
1 431 432 0
1 430 304 0
1 -538 536 0
1 -538 543 0
1 544 545 0
1 -544 -424 0
1 546 -437 0
1 -547 548 0
1 547 -438 0
1 549 -437 0
1 549 -431 0
1 -536 538 0
1 536 -549 0
1 550 -304 0
1 438 -304 0
1 438 435 0
1 -438 545 0
1 438 445 0
1 -551 545 0
1 -443 -442 0
1 552 -438 0
1 -553 454 0
1 455 554 0
1 555 -556 0
1 -555 -557 0
1 -557 -558 0
1 -557 -455 0
1 559 -560 0
1 561 -455 0
1 -561 456 0
1 -561 443 0
1 562 554 0
1 -562 -454 0
1 562 -441 0
1 -453 462 0
1 -556 -462 0
1 563 -469 0
1 563 464 0
1 563 -564 0
1 565 -558 0
1 -565 -453 0
1 469 -566 0
1 567 -459 0
1 567 468 0
1 -567 471 0
1 568 569 0
1 568 570 0
1 571 -475 0
1 -571 569 0
1 572 469 0
1 -572 573 0
1 452 567 0
1 -570 566 0
1 -466 574 0
1 -575 576 0
1 569 -577 0
1 -569 -578 0
1 -569 459 0
1 569 -579 0
1 579 569 0
1 -579 -481 0
1 -580 -581 0
1 574 -449 0
1 578 -582 0
1 -578 -488 0
1 578 579 0
1 -583 -569 0
1 -577 576 0
1 467 -583 0
1 584 468 0
1 -576 -584 0
1 -503 504 0
1 503 509 0
1 510 400 0
1 -585 -504 0
1 -586 -585 0
1 -587 588 0
1 -589 -410 0
1 589 590 0
1 589 591 0
1 -589 592 0
1 -593 594 0
1 595 -510 0
1 -595 -596 0
1 -596 -597 0
1 -596 -598 0
1 -596 -510 0
1 -514 -522 0
1 514 -592 0
1 599 -515 0
1 599 389 0
1 600 -593 0
1 -600 591 0
1 -521 601 0
1 -521 600 0
1 592 597 0
1 592 521 0
1 -591 600 0
1 -602 521 0
1 -603 -604 0
1 -603 592 0
1 605 603 0
1 -606 -607 0
1 608 604 0
1 -526 401 0
1 526 -518 0
1 -607 -601 0
1 -607 -526 0
1 607 531 0
1 -609 610 0
1 609 -611 0
1 -612 613 0
1 614 607 0
1 614 615 0
1 -616 -389 0
1 -616 527 0
1 -611 -615 0
1 -617 -613 0
1 617 -532 0
1 -617 -618 0
1 -541 542 0
1 -619 -620 0
1 -619 -621 0
1 610 -622 0
1 -618 610 0
1 618 -623 0
1 624 -625 0
1 624 -609 0
1 624 626 0
1 -627 -539 0
1 -627 535 0
1 -628 -551 0
1 -629 630 0
1 629 -618 0
1 629 631 0
1 620 -540 0
1 620 -632 0
1 631 633 0
1 631 -634 0
1 -631 -629 0
1 635 -628 0
1 -635 632 0
1 633 622 0
1 634 -623 0
1 -634 -631 0
1 636 -548 0
1 -636 -637 0
1 638 639 0
1 639 640 0
1 639 -641 0
1 639 -642 0
1 643 -644 0
1 643 645 0
1 -643 -646 0
1 647 639 0
1 647 -648 0
1 642 453 0
1 -649 650 0
1 649 559 0
1 -650 -560 0
1 -650 -638 0
1 -548 -647 0
1 648 651 0
1 558 -555 0
1 -558 650 0
1 560 548 0
1 -560 652 0
1 560 567 0
1 -653 654 0
1 -655 -656 0
1 655 -657 0
1 658 659 0
1 660 -552 0
1 661 653 0
1 661 -659 0
1 661 651 0
1 652 -653 0
1 662 566 0
1 -662 663 0
1 664 660 0
1 -664 -665 0
1 -666 -660 0
1 -666 -656 0
1 -667 -660 0
1 -667 656 0
1 667 668 0
1 -667 -570 0
1 663 -669 0
1 -663 -664 0
1 -663 -656 0
1 -656 664 0
1 -656 -655 0
1 -670 -478 0
1 -581 566 0
1 671 668 0
1 -672 -667 0
1 -672 -668 0
1 673 674 0
1 -675 -602 0
1 -676 677 0
1 -678 -679 0
1 -680 -679 0
1 -680 586 0
1 681 -674 0
1 682 683 0
1 -682 -592 0
1 -684 -682 0
1 -679 685 0
1 679 678 0
1 -679 686 0
1 -679 -687 0
1 -688 -676 0
1 594 689 0
1 -594 593 0
1 687 -690 0
1 -677 -675 0
1 691 -594 0
1 692 -693 0
1 -694 619 0
1 -694 -695 0
1 -693 -626 0
1 685 -692 0
1 696 -697 0
1 -698 -692 0
1 625 615 0
1 -699 626 0
1 -699 693 0
1 700 626 0
1 701 702 0
1 701 703 0
1 701 -692 0
1 623 704 0
1 705 706 0
1 705 707 0
1 -705 621 0
1 -708 709 0
1 -708 -623 0
1 710 -706 0
1 -645 706 0
1 -645 711 0
1 -645 712 0
1 645 713 0
1 -646 706 0
1 -646 -714 0
1 -707 610 0
1 -706 715 0
1 -706 716 0
1 -717 718 0
1 -640 -719 0
1 720 721 0
1 722 -723 0
1 722 644 0
1 657 -719 0
1 657 655 0
1 711 -646 0
1 -714 -713 0
1 -713 640 0
1 713 720 0
1 713 -621 0
1 -713 724 0
1 -651 -725 0
1 651 723 0
1 -651 -665 0
1 651 -711 0
1 -651 650 0
1 665 -719 0
1 -726 -727 0
1 726 666 0
1 -728 641 0
1 728 652 0
1 -728 -667 0
1 -641 722 0
1 -641 639 0
1 729 665 0
1 729 721 0
1 -669 -641 0
1 -669 -652 0
1 -730 -731 0
1 -732 -733 0
1 -732 650 0
1 734 -735 0
1 -736 -687 0
1 737 736 0
1 737 687 0
1 697 -738 0
1 -739 703 0
1 703 740 0
1 -704 -703 0
1 -704 685 0
1 -702 -739 0
1 741 -742 0
1 -740 -702 0
1 -690 743 0
1 -690 744 0
1 -690 -745 0
1 -690 746 0
1 690 -747 0
1 742 708 0
1 -742 748 0
1 748 701 0
1 748 740 0
1 -748 -749 0
1 -750 -751 0
1 -751 752 0
1 753 718 0
1 -753 -754 0
1 749 -755 0
1 749 -750 0
1 749 756 0
1 -754 757 0
1 754 758 0
1 -718 759 0
1 -718 717 0
1 760 717 0
1 761 716 0
1 -761 754 0
1 761 724 0
1 762 -718 0
1 -762 763 0
1 -762 750 0
1 -757 -752 0
1 764 -718 0
1 764 -765 0
1 764 766 0
1 -725 -709 0
1 725 706 0
1 -725 716 0
1 716 767 0
1 -724 761 0
1 768 -767 0
1 769 765 0
1 770 -723 0
1 -770 -771 0
1 -770 -715 0
1 -770 772 0
1 770 -767 0
1 -770 -659 0
1 770 -713 0
1 -773 772 0
1 -773 729 0
1 -715 724 0
1 -774 717 0
1 774 -731 0
1 775 -740 0
1 744 776 0
1 -744 -754 0
1 -777 752 0
1 752 -757 0
1 -752 -778 0
1 -779 780 0
1 779 -781 0
1 779 -777 0
1 -779 -782 0
1 783 -777 0
1 784 -756 0
1 -780 -785 0
1 -746 -779 0
1 -786 -756 0
1 -785 -780 0
1 -765 784 0
1 765 -762 0
1 -765 785 0
1 787 -769 0
1 787 784 0
1 787 782 0
1 -788 782 0
1 -789 -788 0
1 790 -785 0
1 -781 787 0
